branch-and-cut/resultados/B/b02.sol
83
22
49 23
35 27
25 47
7 35
26 45
44 11
37 45
19 36
27 43
40 28
35 41
40 37
29 6
47 45
43 44
36 20
26 49
7 39
20 45
27 29
9 27
28 43
