branch-and-cut/resultados/B/b02.log

Gurobi 10.0.3 (linux64) logging started Fri Dec 15 18:14:09 2023

Set parameter LogFile to value "resultados/B/b02.log"
Set parameter Cutoff to value 96
Gurobi Optimizer version 10.0.3 build v10.0.3rc0 (linux64)

CPU model: Intel(R) Core(TM) i7-8650U CPU @ 1.90GHz, instruction set [SSE2|AVX|AVX2]
Thread count: 4 physical cores, 8 logical processors, using up to 8 threads

Optimize a model with 13 rows, 63 columns and 35 nonzeros
Model fingerprint: 0xd0330239
Variable types: 0 continuous, 63 integer (63 binary)
Coefficient statistics:
  Matrix range     [1e+00, 1e+00]
  Objective range  [1e+00, 1e+01]
  Bounds range     [1e+00, 1e+00]
  RHS range        [1e+00, 1e+00]
Presolve removed 6 rows and 4 columns
Presolve time: 0.00s
Presolved: 7 rows, 59 columns, 23 nonzeros
Variable types: 0 continuous, 59 integer (59 binary)

Root relaxation: objective 3.000000e+01, 7 iterations, 0.00 seconds (0.00 work units)

    Nodes    |    Current Node    |     Objective Bounds      |     Work
 Expl Unexpl |  Obj  Depth IntInf | Incumbent    BestBd   Gap | It/Node Time

     0     0   30.00000    0    -          -   30.00000      -     -    0s
     0     0   48.00000    0    -          -   48.00000      -     -    0s
     0     0   57.50000    0    6          -   57.50000      -     -    0s
     0     0   65.00000    0    -          -   65.00000      -     -    0s
     0     0   66.00000    0    4          -   66.00000      -     -    0s
     0     0   71.00000    0    -          -   71.00000      -     -    0s
     0     0   73.16667    0   17          -   73.16667      -     -    0s
     0     0   74.00000    0    6          -   74.00000      -     -    0s
     0     0   74.00000    0   12          -   74.00000      -     -    0s
     0     2   74.14706    0   18          -   74.14706      -     -    0s
*   36    32               6      84.0000000   79.51724  5.34%  17.7    0s
*   50    20              10      83.0000000   81.00000  2.41%  14.8    0s

Cutting planes:
  User: 44
  Gomory: 2
  MIR: 9
  Lazy constraints: 58

Explored 71 nodes (895 simplex iterations) in 0.15 seconds (0.01 work units)
Thread count was 8 (of 8 available processors)

Solution count 2: 83 84 

Optimal solution found (tolerance 1.00e-04)
Best objective 8.300000000000e+01, best bound 8.300000000000e+01, gap 0.0000%

User-callback calls 358, time in user-callback 0.12 sec
